p cnf 20 9
e 1 2 0
a 3 0
e 4 0
a 5 0
e 6 0
a 7 8 9 10 11 12 13 0
e 14 15 16 0
a 17 0
e 18 19 20 0
14 8 -17 0
-17 1 14 7 18 0
-5 15 -1 -13 0
20 2 -14 10 0
-18 -9 17 0
-18 -13 -3 2 17 0
5 -9 -13 -3 0
-13 7 -9 6 0
-12 -3 8 -19 0
